Mack/Bortfeldt(2008)
Bin-Packing-Problem
BP-RG/SBSBPP/SSSCSP
Testcase-ID	1
Problem-ID	60
no_item_types	15
no_items	1380
CONTAINER_DATA (l,w,h)	587	233	220
ITEMS_DATA:
Type	x	y	z	no_items
1	102	96	59	87
2	95	76	60	105
3	99	90	32	93
4	94	65	37	94
5	109	63	28	87
6	64	60	47	91
7	80	52	42	107
8	90	75	25	82
9	74	64	35	84
10	76	50	43	96
11	68	66	31	91
12	120	34	26	81
13	61	47	34	89
14	53	45	36	95
15	53	40	36	98
